p cnf 1026 2427
a 1 2 3 4 5 6 7 8 25 26 27 28 29 30 31 32 33 34 35 36 37 38 39 40 41 42 43 44 45 46 47 48 49 50 51 52 53 54 55 56 57 58 59 60 61 62 63 64 65 66 67 68 69 70 71 72 73 74 75 76 77 78 79 80 81 82 83 84 85 86 87 88 89 90 0
e 9 10 11 12 13 14 15 16 17 18 19 20 21 22 23 24 91 92 93 94 95 96 97 98 99 100 101 102 103 104 105 106 107 108 109 110 111 112 113 114 115 116 117 118 119 120 121 122 123 124 125 126 127 128 129 130 131 132 133 134 135 136 137 138 139 140 141 142 143 144 145 146 147 148 149 150 151 152 153 154 155 156 157 158 159 160 161 162 163 164 165 166 167 168 169 170 171 172 173 174 175 176 177 178 179 180 181 182 183 184 185 186 187 188 189 190 191 192 193 194 195 196 197 198 199 200 201 202 203 204 205 206 207 208 209 210 211 212 213 214 215 216 217 218 219 220 221 222 223 224 225 226 227 228 229 230 231 232 233 234 235 236 237 238 239 240 241 242 243 244 245 246 247 248 249 250 251 252 253 254 255 256 257 258 259 260 261 262 263 264 265 266 267 268 269 270 271 272 273 274 275 276 277 278 279 280 281 282 283 284 285 286 287 288 289 290 291 292 293 294 295 296 297 298 299 300 301 302 303 304 305 306 307 308 309 310 311 312 313 314 315 316 317 318 319 320 321 322 323 324 325 326 327 328 329 330 331 332 333 334 335 336 337 338 339 340 341 342 343 344 345 346 347 348 349 350 351 352 353 354 355 356 357 358 359 360 361 362 363 364 365 366 367 368 369 370 371 372 373 374 375 376 377 378 379 380 381 382 383 384 385 386 387 388 389 390 391 392 393 394 395 396 397 398 399 400 401 402 403 404 405 406 407 408 409 410 411 412 413 414 415 416 417 418 419 420 421 422 423 424 425 426 427 428 429 430 431 432 433 434 435 436 437 438 439 440 441 442 443 444 445 446 447 448 449 450 451 452 453 454 455 456 457 458 459 460 461 462 463 464 465 466 467 468 469 470 471 472 473 474 475 476 477 478 479 480 481 482 483 484 485 486 487 488 489 490 491 492 493 494 495 496 497 498 499 500 501 502 503 504 505 506 507 508 509 510 511 512 513 514 515 516 517 518 519 520 521 522 523 524 525 526 527 528 529 530 531 532 533 534 535 536 537 538 539 540 541 542 543 544 545 546 547 548 549 550 551 552 553 554 555 556 557 558 559 560 561 562 563 564 565 566 567 568 569 570 571 572 573 574 575 576 577 578 579 580 581 582 583 584 585 586 587 588 589 590 591 592 593 594 595 596 597 598 599 600 601 602 603 604 605 606 607 608 609 610 611 612 613 614 615 616 617 618 619 620 621 622 623 624 625 626 627 628 629 630 631 632 633 634 635 636 637 638 639 640 641 642 643 644 645 646 647 648 649 650 651 652 653 654 655 656 657 658 659 660 661 662 663 664 665 666 667 668 669 670 671 672 673 674 675 676 677 678 679 680 681 682 683 684 685 686 687 688 689 690 691 692 693 694 695 696 697 698 699 700 701 702 703 704 705 706 707 708 709 710 711 712 713 714 715 716 717 718 719 720 721 722 723 724 725 726 727 728 729 730 731 732 733 734 735 736 737 738 739 740 741 742 743 744 745 746 747 748 749 750 751 752 753 754 755 756 757 758 759 760 761 762 763 764 765 766 767 768 769 770 771 772 773 774 775 776 777 778 779 780 781 782 783 784 785 786 787 788 789 790 791 792 793 794 795 796 797 798 799 800 801 802 803 804 805 806 807 808 809 810 811 812 813 814 815 816 817 818 819 820 821 822 823 824 825 826 827 828 829 830 831 832 833 834 835 836 837 838 839 840 841 842 843 844 845 846 847 848 849 850 851 852 853 854 855 856 857 858 859 860 861 862 863 864 865 866 867 868 869 870 871 872 873 874 875 876 877 878 879 880 881 882 883 884 885 886 887 888 889 890 891 892 893 894 895 896 897 898 899 900 901 902 903 904 905 906 907 908 909 910 911 912 913 914 915 916 917 918 919 920 921 922 923 924 925 926 927 928 929 930 931 932 933 934 935 936 937 938 939 940 941 942 943 944 945 946 947 948 949 950 951 952 953 954 955 956 957 958 959 960 961 962 963 964 965 966 967 968 969 970 971 972 973 974 975 976 977 978 979 980 981 982 983 984 985 986 987 988 989 990 991 992 993 994 995 996 997 998 999 1000 1001 1002 1003 1004 1005 1006 1007 1008 1009 1010 1011 1012 1013 1014 1015 1016 1017 1018 1019 1020 1021 1022 1023 1024 1025 1026 0
-1026 0
1026 -686 0
1026 -775 0
1026 -798 0
1026 -821 0
1026 -830 0
1026 -839 0
1026 -848 0
1026 -857 0
1026 -900 0
1026 -941 0
1026 -950 0
1026 -959 0
1026 -968 0
1026 -977 0
1026 -986 0
1026 -1025 0
5 4 6 3 2 1 -685 -684 -1024 1025 0
1024 -1005 0
1024 -1023 0
-9 -10 -11 -12 -13 -14 -15 -16 -17 -18 -19 -20 -21 -22 -23 -24 -897 -938 -772 -1022 1023 0
1022 -1021 0
1022 -444 0
1022 -445 0
1022 -446 0
1022 -447 0
-1020 -1015 -1010 1021 0
1020 -1016 0
1020 -436 0
1020 -437 0
1020 -608 0
1020 -1017 0
1020 -610 0
1020 -1018 0
1020 -63 0
1020 -62 0
1020 -61 0
1020 -60 0
1020 -59 0
1020 -58 0
1020 -57 0
1020 -1019 0
-9 -30 1019 0
-9 -68 1018 0
-27 9 1017 0
9 -65 1016 0
1015 -1011 0
1015 -429 0
1015 -600 0
1015 -1012 0
1015 -1013 0
1015 -432 0
1015 -604 0
1015 -50 0
1015 -49 0
1015 -48 0
1015 -47 0
1015 -46 0
1015 -45 0
1015 -44 0
1015 -1014 0
-9 -28 1014 0
-26 9 1013 0
-9 -55 1012 0
9 -52 1011 0
1010 -1006 0
1010 -419 0
1010 -420 0
1010 -595 0
1010 -1007 0
1010 -1008 0
1010 -597 0
1010 -1009 0
1010 -37 0
1010 -36 0
1010 -35 0
1010 -34 0
1010 -33 0
1010 -32 0
1010 -31 0
-25 9 1009 0
-9 -29 1008 0
-39 9 1007 0
-9 -42 1006 0
-1004 -91 1005 0
1004 -1003 0
1004 -728 0
1004 -918 0
1004 -876 0
-151 -150 -149 -148 -1002 1003 0
1002 -991 0
1002 -996 0
1002 -1001 0
-1000 61 63 62 60 59 58 57 -999 -314 -998 -312 -141 -140 -997 1001 0
1000 30 0
1000 9 0
999 68 0
999 9 0
998 27 0
998 -9 0
997 65 0
997 -9 0
-995 50 49 48 46 45 47 44 -308 -136 -994 -993 -304 -133 -992 996 0
995 28 0
995 9 0
994 26 0
994 -9 0
993 55 0
993 9 0
992 52 0
992 -9 0
32 31 33 35 37 36 34 -990 -301 -989 -988 -299 -124 -123 -987 991 0
990 25 0
990 -9 0
989 29 0
989 9 0
988 39 0
988 -9 0
987 42 0
987 9 0
5 4 8 3 2 1 -685 -684 -985 986 0
985 -981 0
985 -984 0
-9 -10 -11 -12 -13 -14 -15 -16 -17 -18 -19 -20 -21 -22 -23 -24 -755 -754 -753 -770 -769 -983 -982 984 0
983 -761 0
983 -813 0
982 -767 0
982 -659 0
-980 -91 981 0
980 -978 0
980 -979 0
980 -725 0
980 -726 0
980 -709 0
980 -710 0
980 -711 0
-802 -717 979 0
-363 -723 978 0
5 6 8 3 2 1 -685 -684 -976 977 0
976 -972 0
976 -975 0
-9 -10 -11 -12 -13 -14 -15 -16 -17 -18 -19 -20 -21 -22 -23 -24 -667 -812 -810 -666 -665 -974 -973 975 0
974 -817 0
974 -659 0
973 -678 0
973 -771 0
-971 -91 972 0
971 -969 0
971 -970 0
971 -369 0
971 -370 0
971 -799 0
971 -801 0
971 -371 0
-363 -806 970 0
-727 -382 969 0
7 5 6 8 3 1 -685 -684 -967 968 0
967 -963 0
967 -966 0
-9 -10 -11 -12 -13 -14 -15 -16 -17 -18 -19 -20 -21 -22 -23 -24 -672 -671 -670 -816 -815 -965 -964 966 0
965 -678 0
965 -767 0
964 -790 0
964 -813 0
-962 -91 963 0
962 -960 0
962 -961 0
962 -804 0
962 -805 0
962 -374 0
962 -375 0
962 -376 0
-723 -382 961 0
-802 -779 960 0
7 5 4 6 3 1 -685 -684 -958 959 0
958 -954 0
958 -957 0
-9 -10 -11 -12 -13 -14 -15 -16 -17 -18 -19 -20 -21 -22 -23 -24 -569 -568 -551 -789 -787 -956 -955 957 0
956 -817 0
956 -794 0
955 -767 0
955 -591 0
-953 -91 954 0
953 -951 0
953 -952 0
953 -776 0
953 -778 0
953 -255 0
953 -272 0
953 -273 0
-783 -806 952 0
-295 -723 951 0
7 5 4 8 3 1 -685 -684 -949 950 0
949 -945 0
949 -948 0
-9 -10 -11 -12 -13 -14 -15 -16 -17 -18 -19 -20 -21 -22 -23 -24 -750 -749 -748 -766 -765 -947 -946 948 0
947 -817 0
947 -761 0
946 -771 0
946 -790 0
-944 -91 945 0
944 -942 0
944 -943 0
944 -721 0
944 -722 0
944 -704 0
944 -705 0
944 -706 0
-717 -806 943 0
-779 -727 942 0
7 4 6 8 3 1 -685 -684 -940 941 0
940 -920 0
940 -939 0
-9 -10 -11 -12 -13 -14 -15 -16 -17 -18 -19 -20 -21 -22 -23 -24 -938 -896 -768 -937 939 0
938 -659 0
938 -790 0
937 -936 0
937 -444 0
937 -445 0
937 -446 0
937 -447 0
-935 -930 -925 936 0
935 -931 0
935 -932 0
935 -434 0
935 -411 0
935 -933 0
935 -438 0
935 -934 0
935 -413 0
935 -81 0
935 -77 0
935 -63 0
935 -62 0
935 -61 0
935 -60 0
935 -57 0
19 -65 934 0
-27 19 933 0
-19 -68 932 0
-19 -30 931 0
930 -926 0
930 -927 0
930 -928 0
930 -401 0
930 -425 0
930 -426 0
930 -929 0
930 -404 0
930 -80 0
930 -74 0
930 -50 0
930 -49 0
930 -48 0
930 -47 0
930 -44 0
-26 19 929 0
-19 -55 928 0
-19 -28 927 0
19 -52 926 0
925 -921 0
925 -922 0
925 -391 0
925 -416 0
925 -923 0
925 -924 0
925 -394 0
925 -422 0
925 -79 0
925 -71 0
925 -37 0
925 -36 0
925 -35 0
925 -34 0
925 -31 0
-19 -42 924 0
-25 19 923 0
-19 -29 922 0
-39 19 921 0
-919 -91 920 0
919 -917 0
919 -724 0
919 -875 0
919 -918 0
-779 -363 918 0
-151 -150 -149 -148 -916 917 0
916 -905 0
916 -910 0
916 -915 0
61 81 63 62 60 57 77 -117 -914 -142 -913 -115 -138 -912 -911 915 0
914 65 0
914 -19 0
913 27 0
913 -19 0
912 68 0
912 19 0
911 30 0
911 19 0
50 49 48 74 47 80 44 -108 -909 -130 -129 -105 -908 -907 -906 910 0
909 26 0
909 -19 0
908 55 0
908 19 0
907 28 0
907 19 0
906 52 0
906 -19 0
31 35 37 36 34 79 71 -126 -98 -904 -903 -120 -95 -902 -901 905 0
904 42 0
904 19 0
903 25 0
903 -19 0
902 29 0
902 19 0
901 39 0
901 -19 0
7 5 6 8 3 2 -685 -684 -899 900 0
899 -878 0
899 -898 0
-9 -10 -11 -12 -13 -14 -15 -16 -17 -18 -19 -20 -21 -22 -23 -24 -897 -896 -762 -895 898 0
897 -813 0
897 -794 0
896 -664 0
896 -817 0
895 -894 0
895 -444 0
895 -445 0
895 -446 0
895 -447 0
-893 -888 -883 894 0
893 -889 0
893 -890 0
893 -891 0
893 -892 0
893 -521 0
893 -522 0
893 -410 0
893 -90 0
893 -87 0
893 -412 0
893 -81 0
893 -77 0
893 -63 0
893 -62 0
893 -57 0
-24 -68 892 0
-24 -30 891 0
24 -65 890 0
-27 24 889 0
888 -884 0
888 -885 0
888 -886 0
888 -887 0
888 -514 0
888 -402 0
888 -403 0
888 -89 0
888 -517 0
888 -86 0
888 -80 0
888 -74 0
888 -50 0
888 -49 0
888 -44 0
-24 -55 887 0
-24 -28 886 0
24 -52 885 0
-26 24 884 0
883 -879 0
883 -880 0
883 -881 0
883 -529 0
883 -392 0
883 -393 0
883 -531 0
883 -88 0
883 -882 0
883 -85 0
883 -79 0
883 -71 0
883 -37 0
883 -36 0
883 -31 0
-25 24 882 0
-24 -42 881 0
-24 -29 880 0
-39 24 879 0
-877 -91 878 0
877 -874 0
877 -718 0
877 -875 0
877 -876 0
-783 -802 876 0
-806 -368 875 0
-151 -150 -149 -148 -873 874 0
873 -862 0
873 -867 0
873 -872 0
81 63 62 57 77 -116 90 87 -114 -226 -225 -871 -870 -869 -868 872 0
871 68 0
871 24 0
870 30 0
870 24 0
869 65 0
869 -24 0
868 27 0
868 -24 0
50 49 74 86 80 44 -221 89 -107 -106 -218 -866 -865 -864 -863 867 0
866 55 0
866 24 0
865 28 0
865 24 0
864 52 0
864 -24 0
863 26 0
863 -24 0
31 37 36 79 71 85 -861 88 -235 -97 -96 -233 -860 -859 -858 862 0
861 25 0
861 -24 0
860 42 0
860 24 0
859 29 0
859 24 0
858 39 0
858 -24 0
7 4 6 8 3 2 -685 -684 -856 857 0
856 -852 0
856 -855 0
-9 -10 -11 -12 -13 -14 -15 -16 -17 -18 -19 -20 -21 -22 -23 -24 -650 -649 -632 -663 -662 -854 -853 855 0
854 -763 0
854 -761 0
853 -659 0
853 -794 0
-851 -91 852 0
851 -849 0
851 -850 0
851 -366 0
851 -367 0
851 -336 0
851 -353 0
851 -354 0
-717 -719 850 0
-783 -363 849 0
7 5 4 6 3 2 -685 -684 -847 848 0
847 -843 0
847 -846 0
-9 -10 -11 -12 -13 -14 -15 -16 -17 -18 -19 -20 -21 -22 -23 -24 -510 -793 -792 -493 -448 -845 -844 846 0
845 -664 0
845 -790 0
844 -761 0
844 -591 0
-842 -91 843 0
842 -840 0
842 -841 0
842 -152 0
842 -197 0
842 -781 0
842 -782 0
842 -214 0
-779 -368 841 0
-295 -717 840 0
7 5 4 8 3 2 -685 -684 -838 839 0
838 -834 0
838 -837 0
-9 -10 -11 -12 -13 -14 -15 -16 -17 -18 -19 -20 -21 -22 -23 -24 -760 -759 -758 -757 -752 -836 -835 837 0
836 -664 0
836 -767 0
835 -771 0
835 -794 0
-833 -91 834 0
833 -831 0
833 -832 0
833 -708 0
833 -713 0
833 -714 0
833 -715 0
833 -716 0
-723 -368 832 0
-783 -727 831 0
4 6 8 3 2 1 -685 -684 -829 830 0
829 -825 0
829 -828 0
-9 -10 -11 -12 -13 -14 -15 -16 -17 -18 -19 -20 -21 -22 -23 -24 -658 -657 -652 -631 -614 -827 -826 828 0
827 -664 0
827 -813 0
826 -763 0
826 -771 0
-824 -91 825 0
824 -822 0
824 -823 0
824 -318 0
824 -335 0
824 -356 0
824 -361 0
824 -362 0
-802 -368 823 0
-727 -719 822 0
7 5 6 8 2 1 -685 -684 -820 821 0
820 -809 0
820 -819 0
-9 -10 -11 -12 -13 -14 -15 -16 -17 -18 -19 -20 -21 -22 -23 -24 -677 -676 -675 -674 -669 -818 -814 819 0
818 -763 0
818 -817 0
-672 -671 -670 -816 -815 817 0
816 -811 0
816 -567 0
816 -444 0
816 -445 0
816 -446 0
816 -447 0
815 -668 0
815 -443 0
815 -444 0
815 -445 0
815 -446 0
815 -447 0
814 -591 0
814 -813 0
-667 -812 -810 -666 -665 813 0
812 -630 0
812 -811 0
812 -444 0
812 -445 0
812 -446 0
812 -447 0
-677 -676 -675 811 0
810 -648 0
810 -673 0
810 -444 0
810 -445 0
810 -446 0
810 -447 0
-808 -91 809 0
808 -803 0
808 -807 0
808 -373 0
808 -378 0
808 -379 0
808 -380 0
808 -381 0
-806 -719 807 0
806 -804 0
806 -805 0
806 -374 0
806 -375 0
806 -376 0
-151 -150 -149 -148 -271 -800 805 0
-151 -150 -149 -148 -147 -372 804 0
-802 -295 803 0
802 -369 0
802 -370 0
802 -799 0
802 -801 0
802 -371 0
-151 -150 -149 -148 -800 -334 801 0
800 -379 0
800 -380 0
800 -381 0
-151 -150 -149 -148 -377 -352 799 0
7 5 4 6 2 1 -685 -684 -797 798 0
797 -786 0
797 -796 0
-9 -10 -11 -12 -13 -14 -15 -16 -17 -18 -19 -20 -21 -22 -23 -24 -590 -589 -588 -587 -534 -795 -791 796 0
795 -678 0
795 -794 0
-510 -793 -792 -493 -448 794 0
793 -470 0
793 -788 0
793 -444 0
793 -445 0
793 -446 0
793 -447 0
792 -415 0
792 -570 0
792 -444 0
792 -445 0
792 -446 0
792 -447 0
791 -763 0
791 -790 0
-569 -568 -551 -789 -787 790 0
789 -567 0
789 -788 0
789 -444 0
789 -445 0
789 -446 0
789 -447 0
-590 -589 -588 788 0
787 -511 0
787 -550 0
787 -444 0
787 -445 0
787 -446 0
787 -447 0
-785 -91 786 0
785 -780 0
785 -784 0
785 -238 0
785 -291 0
785 -292 0
785 -293 0
785 -294 0
-783 -382 784 0
783 -152 0
783 -197 0
783 -781 0
783 -782 0
783 -214 0
-151 -150 -149 -148 -777 -174 782 0
-151 -150 -149 -148 -274 -119 781 0
-779 -719 780 0
779 -776 0
779 -778 0
779 -255 0
779 -272 0
779 -273 0
-151 -150 -149 -148 -777 -271 778 0
777 -292 0
777 -293 0
777 -294 0
-151 -150 -149 -148 -254 -215 776 0
7 5 4 8 2 1 -685 -684 -774 775 0
774 -730 0
774 -773 0
-9 -10 -11 -12 -13 -14 -15 -16 -17 -18 -19 -20 -21 -22 -23 -24 -772 -768 -762 -747 773 0
772 -771 0
772 -591 0
-755 -754 -753 -770 -769 771 0
770 -764 0
770 -613 0
770 -444 0
770 -445 0
770 -446 0
770 -447 0
769 -751 0
769 -648 0
769 -444 0
769 -445 0
769 -446 0
769 -447 0
768 -763 0
768 -767 0
-750 -749 -748 -766 -765 767 0
766 -756 0
766 -443 0
766 -444 0
766 -445 0
766 -446 0
766 -447 0
765 -764 0
765 -550 0
765 -444 0
765 -445 0
765 -446 0
765 -447 0
-760 -759 -758 764 0
-655 -654 -653 -681 -680 763 0
762 -678 0
762 -761 0
-760 -759 -758 -757 -752 761 0
760 -470 0
760 -444 0
760 -445 0
760 -446 0
760 -447 0
759 -630 0
759 -509 0
759 -444 0
759 -445 0
759 -446 0
759 -447 0
758 -415 0
758 -567 0
758 -444 0
758 -445 0
758 -446 0
758 -447 0
757 -756 0
757 -509 0
757 -444 0
757 -445 0
757 -446 0
757 -447 0
-755 -754 -753 756 0
755 -630 0
755 -444 0
755 -445 0
755 -446 0
755 -447 0
754 -648 0
754 -567 0
754 -444 0
754 -445 0
754 -446 0
754 -447 0
753 -613 0
753 -470 0
753 -444 0
753 -445 0
753 -446 0
753 -447 0
752 -751 0
752 -415 0
752 -444 0
752 -445 0
752 -446 0
752 -447 0
-750 -749 -748 751 0
750 -567 0
750 -444 0
750 -445 0
750 -446 0
750 -447 0
749 -630 0
749 -443 0
749 -444 0
749 -445 0
749 -446 0
749 -447 0
748 -550 0
748 -470 0
748 -444 0
748 -445 0
748 -446 0
748 -447 0
747 -746 0
747 -444 0
747 -445 0
747 -446 0
747 -447 0
-745 -740 -735 746 0
745 -741 0
745 -742 0
745 -743 0
745 -485 0
745 -459 0
745 -460 0
745 -744 0
745 -489 0
745 -81 0
745 -77 0
745 -63 0
745 -62 0
745 -61 0
745 -60 0
745 -57 0
-14 -68 744 0
-14 -30 743 0
14 -65 742 0
-27 14 741 0
740 -736 0
740 -737 0
740 -738 0
740 -478 0
740 -481 0
740 -452 0
740 -453 0
740 -739 0
740 -80 0
740 -74 0
740 -50 0
740 -49 0
740 -48 0
740 -47 0
740 -44 0
-14 -55 739 0
-14 -28 738 0
14 -52 737 0
-26 14 736 0
735 -731 0
735 -732 0
735 -733 0
735 -734 0
735 -471 0
735 -474 0
735 -464 0
735 -468 0
735 -79 0
735 -71 0
735 -37 0
735 -36 0
735 -35 0
735 -34 0
735 -31 0
-14 -42 734 0
-14 -29 733 0
-39 14 732 0
-25 14 731 0
-729 -91 730 0
729 -703 0
729 -718 0
729 -724 0
729 -728 0
-295 -727 728 0
727 -725 0
727 -726 0
727 -709 0
727 -710 0
727 -711 0
-151 -150 -149 -148 -317 -720 726 0
-151 -150 -149 -148 -352 -707 725 0
-723 -719 724 0
723 -721 0
723 -722 0
723 -704 0
723 -705 0
723 -706 0
-151 -150 -149 -148 -147 -712 722 0
-151 -150 -149 -148 -254 -720 721 0
720 -714 0
720 -715 0
720 -716 0
719 -384 0
719 -385 0
719 -357 0
719 -358 0
719 -359 0
-717 -382 718 0
717 -708 0
717 -713 0
717 -714 0
717 -715 0
717 -716 0
-151 -150 -149 -148 -174 716 0
-151 -150 -149 -148 -213 -334 715 0
-151 -150 -149 -148 -271 -119 714 0
-151 -150 -149 -148 -213 -712 713 0
712 -709 0
712 -710 0
712 -711 0
-151 -150 -149 -148 -334 711 0
-151 -150 -149 -148 -271 -352 710 0
-151 -150 -149 -148 -174 -317 709 0
-151 -150 -149 -148 -119 -707 708 0
707 -704 0
707 -705 0
707 -706 0
-151 -150 -149 -148 -271 706 0
-151 -150 -149 -148 -147 -334 705 0
-151 -150 -149 -148 -174 -254 704 0
-151 -150 -149 -148 -702 703 0
702 -691 0
702 -696 0
702 -701 0
61 81 63 62 60 57 77 -193 -700 -164 -163 -189 -699 -698 -697 701 0
700 68 0
700 14 0
699 30 0
699 14 0
698 65 0
698 -14 0
697 27 0
697 -14 0
50 49 48 74 47 80 44 -695 -157 -156 -185 -182 -694 -693 -692 696 0
695 55 0
695 14 0
694 28 0
694 14 0
693 52 0
693 -14 0
692 26 0
692 -14 0
31 35 37 36 34 79 71 -172 -168 -178 -175 -690 -689 -688 -687 691 0
690 42 0
690 14 0
689 29 0
689 14 0
688 39 0
688 -14 0
687 25 0
687 -14 0
7 4 6 8 2 1 -685 -684 -683 686 0
685 -7 0
685 -3 0
685 -2 0
685 -1 0
684 -8 0
684 -6 0
684 -5 0
684 -4 0
683 -387 0
683 -682 0
-9 -10 -11 -12 -13 -14 -15 -16 -17 -18 -19 -20 -21 -22 -23 -24 -655 -654 -653 -681 -680 -679 -660 682 0
681 -651 0
681 -533 0
681 -444 0
681 -445 0
681 -446 0
681 -447 0
680 -661 0
680 -492 0
680 -444 0
680 -445 0
680 -446 0
680 -447 0
679 -664 0
679 -678 0
-677 -676 -675 -674 -669 678 0
677 -533 0
677 -444 0
677 -445 0
677 -446 0
677 -447 0
676 -613 0
676 -492 0
676 -444 0
676 -445 0
676 -446 0
676 -447 0
675 -550 0
675 -586 0
675 -444 0
675 -445 0
675 -446 0
675 -447 0
674 -673 0
674 -586 0
674 -444 0
674 -445 0
674 -446 0
674 -447 0
-672 -671 -670 673 0
672 -550 0
672 -444 0
672 -445 0
672 -446 0
672 -447 0
671 -613 0
671 -443 0
671 -444 0
671 -445 0
671 -446 0
671 -447 0
670 -567 0
670 -533 0
670 -444 0
670 -445 0
670 -446 0
670 -447 0
669 -668 0
669 -492 0
669 -444 0
669 -445 0
669 -446 0
669 -447 0
-667 -666 -665 668 0
667 -613 0
667 -444 0
667 -445 0
667 -446 0
667 -447 0
666 -648 0
666 -550 0
666 -444 0
666 -445 0
666 -446 0
666 -447 0
665 -630 0
665 -533 0
665 -444 0
665 -445 0
665 -446 0
665 -447 0
-650 -649 -632 -663 -662 664 0
663 -656 0
663 -470 0
663 -444 0
663 -445 0
663 -446 0
663 -447 0
662 -661 0
662 -509 0
662 -444 0
662 -445 0
662 -446 0
662 -447 0
-658 -631 -614 661 0
660 -591 0
660 -659 0
-658 -657 -652 -631 -614 659 0
658 -648 0
658 -444 0
658 -445 0
658 -446 0
658 -447 0
657 -656 0
657 -630 0
657 -444 0
657 -445 0
657 -446 0
657 -447 0
-655 -654 -653 656 0
655 -586 0
655 -444 0
655 -445 0
655 -446 0
655 -447 0
654 -648 0
654 -492 0
654 -444 0
654 -445 0
654 -446 0
654 -447 0
653 -415 0
653 -533 0
653 -444 0
653 -445 0
653 -446 0
653 -447 0
652 -651 0
652 -613 0
652 -444 0
652 -445 0
652 -446 0
652 -447 0
-650 -649 -632 651 0
650 -415 0
650 -444 0
650 -445 0
650 -446 0
650 -447 0
649 -648 0
649 -509 0
649 -444 0
649 -445 0
649 -446 0
649 -447 0
-647 -642 -637 648 0
647 -643 0
647 -644 0
647 -608 0
647 -411 0
647 -610 0
647 -413 0
647 -645 0
647 -646 0
647 -77 0
647 -76 0
647 -63 0
647 -62 0
647 -61 0
647 -60 0
647 -58 0
-11 -30 646 0
-27 11 645 0
-17 -68 644 0
17 -65 643 0
642 -401 0
642 -638 0
642 -639 0
642 -600 0
642 -640 0
642 -641 0
642 -404 0
642 -604 0
642 -74 0
642 -73 0
642 -50 0
642 -49 0
642 -48 0
642 -47 0
642 -45 0
-26 11 641 0
-11 -28 640 0
-17 -55 639 0
17 -52 638 0
637 -391 0
637 -633 0
637 -634 0
637 -635 0
637 -595 0
637 -394 0
637 -597 0
637 -636 0
637 -71 0
637 -70 0
637 -37 0
637 -36 0
637 -35 0
637 -34 0
637 -32 0
-11 -29 636 0
-17 -42 635 0
-39 17 634 0
-25 11 633 0
632 -470 0
632 -586 0
632 -444 0
632 -445 0
632 -446 0
632 -447 0
631 -630 0
631 -586 0
631 -444 0
631 -445 0
631 -446 0
631 -447 0
-629 -624 -619 630 0
629 -459 0
629 -608 0
629 -625 0
629 -626 0
629 -460 0
629 -627 0
629 -628 0
629 -610 0
629 -78 0
629 -77 0
629 -76 0
629 -63 0
629 -61 0
629 -60 0
629 -58 0
-13 -68 628 0
-10 -30 627 0
13 -65 626 0
-27 10 625 0
624 -600 0
624 -620 0
624 -452 0
624 -621 0
624 -453 0
624 -622 0
624 -623 0
624 -604 0
624 -75 0
624 -74 0
624 -73 0
624 -50 0
624 -48 0
624 -47 0
624 -45 0
-26 10 623 0
-13 -55 622 0
-10 -28 621 0
13 -52 620 0
619 -595 0
619 -615 0
619 -616 0
619 -464 0
619 -617 0
619 -618 0
619 -468 0
619 -597 0
619 -72 0
619 -71 0
619 -70 0
619 -37 0
619 -35 0
619 -34 0
619 -32 0
-13 -42 618 0
-10 -29 617 0
-39 13 616 0
-25 10 615 0
614 -613 0
614 -415 0
614 -444 0
614 -445 0
614 -446 0
614 -447 0
-612 -605 -598 613 0
612 -521 0
612 -522 0
612 -606 0
612 -607 0
612 -608 0
612 -609 0
612 -610 0
612 -87 0
612 -611 0
612 -77 0
612 -76 0
612 -63 0
612 -62 0
612 -60 0
612 -58 0
-12 -30 611 0
-9 -67 610 0
-21 -68 609 0
9 -64 608 0
21 -65 607 0
-27 12 606 0
605 -514 0
605 -599 0
605 -600 0
605 -601 0
605 -602 0
605 -603 0
605 -517 0
605 -604 0
605 -86 0
605 -74 0
605 -73 0
605 -50 0
605 -49 0
605 -47 0
605 -45 0
-9 -54 604 0
-12 -28 603 0
-26 12 602 0
-21 -55 601 0
9 -51 600 0
21 -52 599 0
598 -529 0
598 -592 0
598 -593 0
598 -594 0
598 -595 0
598 -531 0
598 -596 0
598 -597 0
598 -85 0
598 -71 0
598 -70 0
598 -37 0
598 -36 0
598 -34 0
598 -32 0
-9 -41 597 0
-12 -29 596 0
-38 9 595 0
-21 -42 594 0
-39 21 593 0
-25 12 592 0
-590 -589 -588 -587 -534 591 0
590 -492 0
590 -444 0
590 -445 0
590 -446 0
590 -447 0
589 -443 0
589 -586 0
589 -444 0
589 -445 0
589 -446 0
589 -447 0
588 -533 0
588 -509 0
588 -444 0
588 -445 0
588 -446 0
588 -447 0
587 -570 0
587 -586 0
587 -444 0
587 -445 0
587 -446 0
587 -447 0
-585 -580 -575 586 0
585 -581 0
585 -582 0
585 -583 0
585 -485 0
585 -489 0
585 -411 0
585 -413 0
585 -81 0
585 -78 0
585 -77 0
585 -76 0
585 -63 0
585 -61 0
585 -60 0
585 -584 0
-15 -30 584 0
-18 -68 583 0
18 -65 582 0
-27 15 581 0
580 -576 0
580 -577 0
580 -578 0
580 -401 0
580 -478 0
580 -481 0
580 -404 0
580 -80 0
580 -75 0
580 -74 0
580 -73 0
580 -50 0
580 -48 0
580 -47 0
580 -579 0
-15 -28 579 0
-18 -55 578 0
18 -52 577 0
-26 15 576 0
575 -571 0
575 -572 0
575 -573 0
575 -391 0
575 -471 0
575 -474 0
575 -394 0
575 -574 0
575 -79 0
575 -72 0
575 -71 0
575 -70 0
575 -37 0
575 -35 0
575 -34 0
-25 15 574 0
-18 -42 573 0
-15 -29 572 0
-39 18 571 0
-569 -568 -551 570 0
569 -443 0
569 -444 0
569 -445 0
569 -446 0
569 -447 0
568 -567 0
568 -492 0
568 -444 0
568 -445 0
568 -446 0
568 -447 0
-566 -561 -556 567 0
566 -562 0
566 -563 0
566 -564 0
566 -565 0
566 -434 0
566 -459 0
566 -460 0
566 -438 0
566 -84 0
566 -81 0
566 -77 0
566 -76 0
566 -62 0
566 -61 0
566 -60 0
-15 -68 565 0
-18 -30 564 0
15 -65 563 0
-27 18 562 0
561 -557 0
561 -558 0
561 -559 0
561 -425 0
561 -426 0
561 -452 0
561 -453 0
561 -560 0
561 -83 0
561 -80 0
561 -74 0
561 -73 0
561 -49 0
561 -48 0
561 -47 0
-18 -28 560 0
-15 -55 559 0
15 -52 558 0
-26 18 557 0
556 -552 0
556 -553 0
556 -416 0
556 -464 0
556 -554 0
556 -468 0
556 -422 0
556 -555 0
556 -82 0
556 -79 0
556 -71 0
556 -70 0
556 -36 0
556 -35 0
556 -34 0
-25 18 555 0
-18 -29 554 0
-15 -42 553 0
-39 15 552 0
551 -550 0
551 -509 0
551 -444 0
551 -445 0
551 -446 0
551 -447 0
-549 -544 -539 550 0
549 -545 0
549 -546 0
549 -434 0
549 -521 0
549 -522 0
549 -438 0
549 -87 0
549 -547 0
549 -81 0
549 -78 0
549 -77 0
549 -76 0
549 -63 0
549 -60 0
549 -548 0
-20 -30 548 0
-23 -68 547 0
23 -65 546 0
-27 20 545 0
544 -540 0
544 -541 0
544 -425 0
544 -426 0
544 -514 0
544 -542 0
544 -517 0
544 -86 0
544 -80 0
544 -75 0
544 -74 0
544 -73 0
544 -50 0
544 -47 0
544 -543 0
-20 -28 543 0
-23 -55 542 0
23 -52 541 0
-26 20 540 0
539 -535 0
539 -536 0
539 -537 0
539 -416 0
539 -529 0
539 -531 0
539 -422 0
539 -538 0
539 -85 0
539 -79 0
539 -72 0
539 -71 0
539 -70 0
539 -37 0
539 -34 0
-25 20 538 0
-23 -42 537 0
-20 -29 536 0
-39 23 535 0
534 -511 0
534 -533 0
534 -444 0
534 -445 0
534 -446 0
534 -447 0
-532 -525 -518 533 0
532 -526 0
532 -527 0
532 -528 0
532 -529 0
532 -471 0
532 -474 0
532 -530 0
532 -531 0
532 -85 0
532 -79 0
532 -71 0
532 -70 0
532 -37 0
532 -36 0
532 -34 0
-24 -43 531 0
-22 -42 530 0
24 -40 529 0
-16 -29 528 0
-39 22 527 0
-25 16 526 0
525 -519 0
525 -520 0
525 -521 0
525 -522 0
525 -485 0
525 -523 0
525 -489 0
525 -87 0
525 -524 0
525 -81 0
525 -77 0
525 -76 0
525 -63 0
525 -62 0
525 -60 0
-22 -68 524 0
-27 16 523 0
-24 -69 522 0
24 -66 521 0
-16 -30 520 0
22 -65 519 0
518 -512 0
518 -513 0
518 -514 0
518 -478 0
518 -481 0
518 -515 0
518 -516 0
518 -517 0
518 -86 0
518 -80 0
518 -74 0
518 -73 0
518 -50 0
518 -49 0
518 -47 0
-24 -56 517 0
-16 -28 516 0
-22 -55 515 0
24 -53 514 0
22 -52 513 0
-26 16 512 0
-510 -493 -448 511 0
510 -509 0
510 -444 0
510 -445 0
510 -446 0
510 -447 0
-508 -503 -498 509 0
508 -410 0
508 -504 0
508 -505 0
508 -436 0
508 -437 0
508 -506 0
508 -90 0
508 -412 0
508 -507 0
508 -81 0
508 -76 0
508 -63 0
508 -62 0
508 -61 0
508 -59 0
-12 -68 507 0
12 -65 506 0
-21 -30 505 0
-27 21 504 0
503 -402 0
503 -403 0
503 -499 0
503 -500 0
503 -501 0
503 -429 0
503 -502 0
503 -89 0
503 -432 0
503 -80 0
503 -73 0
503 -50 0
503 -49 0
503 -48 0
503 -46 0
-12 -55 502 0
-21 -28 501 0
12 -52 500 0
-26 21 499 0
498 -392 0
498 -393 0
498 -494 0
498 -495 0
498 -419 0
498 -420 0
498 -496 0
498 -497 0
498 -88 0
498 -79 0
498 -70 0
498 -37 0
498 -36 0
498 -35 0
498 -33 0
-39 12 497 0
-12 -42 496 0
-21 -29 495 0
-25 21 494 0
493 -470 0
493 -492 0
493 -444 0
493 -445 0
493 -446 0
493 -447 0
-491 -484 -477 492 0
491 -436 0
491 -437 0
491 -485 0
491 -486 0
491 -487 0
491 -488 0
491 -489 0
491 -490 0
491 -84 0
491 -81 0
491 -76 0
491 -62 0
491 -61 0
491 -60 0
491 -59 0
-10 -68 490 0
-14 -67 489 0
-13 -30 488 0
10 -65 487 0
-27 13 486 0
14 -64 485 0
484 -429 0
484 -478 0
484 -479 0
484 -480 0
484 -481 0
484 -482 0
484 -483 0
484 -432 0
484 -83 0
484 -80 0
484 -73 0
484 -49 0
484 -48 0
484 -47 0
484 -46 0
-10 -55 483 0
-13 -28 482 0
-14 -54 481 0
10 -52 480 0
-26 13 479 0
14 -51 478 0
477 -419 0
477 -420 0
477 -471 0
477 -472 0
477 -473 0
477 -474 0
477 -475 0
477 -476 0
477 -82 0
477 -79 0
477 -70 0
477 -36 0
477 -35 0
477 -34 0
477 -33 0
-10 -42 476 0
-13 -29 475 0
-14 -41 474 0
-39 10 473 0
-25 13 472 0
-38 14 471 0
-469 -462 -455 470 0
469 -463 0
469 -392 0
469 -393 0
469 -464 0
469 -465 0
469 -466 0
469 -467 0
469 -468 0
469 -88 0
469 -79 0
469 -71 0
469 -70 0
469 -37 0
469 -36 0
469 -35 0
-14 -43 468 0
-25 22 467 0
-39 16 466 0
-16 -42 465 0
14 -40 464 0
-22 -29 463 0
462 -456 0
462 -457 0
462 -458 0
462 -410 0
462 -459 0
462 -460 0
462 -90 0
462 -412 0
462 -461 0
462 -81 0
462 -77 0
462 -76 0
462 -63 0
462 -62 0
462 -61 0
-22 -30 461 0
14 -66 460 0
-14 -69 459 0
-16 -68 458 0
16 -65 457 0
-27 22 456 0
455 -449 0
455 -450 0
455 -451 0
455 -402 0
455 -403 0
455 -452 0
455 -453 0
455 -454 0
455 -89 0
455 -80 0
455 -74 0
455 -73 0
455 -50 0
455 -49 0
455 -48 0
-22 -28 454 0
-14 -56 453 0
14 -53 452 0
-16 -55 451 0
16 -52 450 0
-26 22 449 0
448 -415 0
448 -443 0
448 -444 0
448 -445 0
448 -446 0
448 -447 0
-27 26 447 0
-29 28 446 0
-26 25 445 0
-28 30 444 0
-442 -433 -424 443 0
442 -434 0
442 -435 0
442 -436 0
442 -437 0
442 -438 0
442 -439 0
442 -440 0
442 -441 0
442 -81 0
442 -76 0
442 -63 0
442 -62 0
442 -61 0
442 -60 0
442 -59 0
-17 -30 441 0
-11 -68 440 0
-27 17 439 0
19 -64 438 0
-9 -69 437 0
9 -66 436 0
11 -65 435 0
-19 -67 434 0
433 -425 0
433 -426 0
433 -427 0
433 -428 0
433 -429 0
433 -430 0
433 -431 0
433 -432 0
433 -80 0
433 -73 0
433 -50 0
433 -49 0
433 -48 0
433 -47 0
433 -46 0
-9 -56 432 0
-11 -55 431 0
-17 -28 430 0
9 -53 429 0
11 -52 428 0
-26 17 427 0
-19 -54 426 0
19 -51 425 0
424 -416 0
424 -417 0
424 -418 0
424 -419 0
424 -420 0
424 -421 0
424 -422 0
424 -423 0
424 -79 0
424 -70 0
424 -37 0
424 -36 0
424 -35 0
424 -34 0
424 -33 0
-11 -42 423 0
-19 -41 422 0
-39 11 421 0
-9 -43 420 0
9 -40 419 0
-17 -29 418 0
-25 17 417 0
-38 19 416 0
-414 -405 -396 415 0
414 -406 0
414 -407 0
414 -408 0
414 -409 0
414 -410 0
414 -411 0
414 -90 0
414 -412 0
414 -413 0
414 -84 0
414 -81 0
414 -77 0
414 -76 0
414 -62 0
414 -61 0
-19 -69 413 0
-24 -67 412 0
19 -66 411 0
24 -64 410 0
-20 -68 409 0
-23 -30 408 0
20 -65 407 0
-27 23 406 0
405 -397 0
405 -398 0
405 -399 0
405 -400 0
405 -401 0
405 -402 0
405 -403 0
405 -404 0
405 -89 0
405 -83 0
405 -80 0
405 -74 0
405 -73 0
405 -49 0
405 -48 0
-19 -56 404 0
-24 -54 403 0
24 -51 402 0
19 -53 401 0
-20 -55 400 0
-23 -28 399 0
20 -52 398 0
-26 23 397 0
396 -388 0
396 -389 0
396 -390 0
396 -391 0
396 -392 0
396 -393 0
396 -394 0
396 -395 0
396 -88 0
396 -82 0
396 -79 0
396 -71 0
396 -70 0
396 -36 0
396 -35 0
-39 20 395 0
-19 -43 394 0
-24 -41 393 0
-38 24 392 0
19 -40 391 0
-20 -42 390 0
-23 -29 389 0
-25 23 388 0
-386 -91 387 0
386 -364 0
386 -383 0
386 -384 0
386 -385 0
386 -357 0
386 -358 0
386 -359 0
-151 -150 -149 -148 -237 -355 385 0
-151 -150 -149 -148 -196 -365 384 0
-382 -368 383 0
382 -373 0
382 -378 0
382 -379 0
382 -380 0
382 -381 0
-151 -150 -149 -148 -237 381 0
-151 -150 -149 -148 -196 -317 380 0
-151 -150 -149 -148 -290 -254 379 0
-151 -150 -149 -148 -290 -377 378 0
377 -374 0
377 -375 0
377 -376 0
-151 -150 -149 -148 -254 376 0
-151 -150 -149 -148 -147 -317 375 0
-151 -150 -149 -148 -237 -271 374 0
-151 -150 -149 -148 -196 -372 373 0
372 -369 0
372 -370 0
372 -371 0
-151 -150 -149 -148 -317 371 0
-151 -150 -149 -148 -254 -352 370 0
-151 -150 -149 -148 -237 -334 369 0
368 -366 0
368 -367 0
368 -336 0
368 -353 0
368 -354 0
-151 -150 -149 -148 -174 -360 367 0
-151 -150 -149 -148 -213 -365 366 0
365 -318 0
365 -335 0
365 -362 0
-363 -295 364 0
363 -318 0
363 -335 0
363 -356 0
363 -361 0
363 -362 0
-151 -150 -149 -148 -352 362 0
-151 -150 -149 -148 -334 -360 361 0
360 -357 0
360 -358 0
360 -359 0
-151 -150 -149 -148 -290 359 0
-151 -150 -149 -148 -196 -352 358 0
-151 -150 -149 -148 -237 -119 357 0
-151 -150 -149 -148 -317 -355 356 0
355 -336 0
355 -353 0
355 -354 0
-151 -150 -149 -148 -119 354 0
-151 -150 -149 -148 -213 -352 353 0
352 -341 0
352 -346 0
352 -351 0
61 76 63 62 60 58 77 -350 -349 -117 -314 -115 -312 -348 -347 351 0
350 30 0
350 11 0
349 27 0
349 -11 0
348 68 0
348 17 0
347 65 0
347 -17 0
50 49 48 45 74 47 73 -308 -108 -345 -344 -304 -343 -342 -105 346 0
345 26 0
345 -11 0
344 28 0
344 11 0
343 55 0
343 17 0
342 52 0
342 -17 0
32 35 37 36 34 71 70 -340 -301 -98 -299 -339 -338 -337 -95 341 0
340 29 0
340 11 0
339 42 0
339 17 0
338 39 0
338 -17 0
337 25 0
337 -11 0
-151 -150 -149 -148 -290 -174 336 0
-151 -150 -149 -148 -290 -334 335 0
334 -323 0
334 -328 0
334 -333 0
61 76 63 60 58 78 77 -314 -332 -331 -164 -330 -329 -312 -163 333 0
332 68 0
332 13 0
331 30 0
331 10 0
330 65 0
330 -13 0
329 27 0
329 -10 0
50 48 45 75 74 47 73 -308 -327 -326 -157 -325 -156 -324 -304 328 0
327 26 0
327 -10 0
326 55 0
326 13 0
325 28 0
325 10 0
324 52 0
324 -13 0
32 35 37 34 72 71 70 -301 -172 -322 -321 -168 -320 -319 -299 323 0
322 42 0
322 13 0
321 29 0
321 10 0
320 39 0
320 -13 0
319 25 0
319 -10 0
-151 -150 -149 -148 -119 -317 318 0
317 -302 0
317 -309 0
317 -316 0
76 63 62 60 58 77 -315 87 -314 -313 -312 -311 -310 -226 -225 316 0
315 30 0
315 12 0
314 67 0
314 9 0
313 68 0
313 21 0
312 64 0
312 -9 0
311 65 0
311 -21 0
310 27 0
310 -12 0
50 49 45 74 47 73 86 -308 -221 -307 -306 -305 -304 -303 -218 309 0
308 54 0
308 9 0
307 28 0
307 12 0
306 26 0
306 -12 0
305 55 0
305 21 0
304 51 0
304 -9 0
303 52 0
303 -21 0
32 37 36 34 71 70 85 -301 -300 -235 -299 -298 -297 -296 -233 302 0
301 41 0
301 9 0
300 29 0
300 12 0
299 38 0
299 -9 0
298 42 0
298 21 0
297 39 0
297 -21 0
296 25 0
296 -12 0
295 -238 0
295 -291 0
295 -292 0
295 -293 0
295 -294 0
-151 -150 -149 -148 -196 294 0
-151 -150 -149 -148 -290 -147 293 0
-151 -150 -149 -148 -213 -237 292 0
-151 -150 -149 -148 -290 -274 291 0
290 -279 0
290 -284 0
290 -289 0
-288 61 76 81 63 60 78 77 -117 -115 -193 -189 -287 -286 -285 289 0
288 30 0
288 15 0
287 68 0
287 18 0
286 65 0
286 -18 0
285 27 0
285 -15 0
-283 50 48 75 74 47 73 80 -108 -185 -182 -105 -282 -281 -280 284 0
283 28 0
283 15 0
282 55 0
282 18 0
281 52 0
281 -18 0
280 26 0
280 -15 0
35 37 34 79 72 71 70 -278 -98 -178 -175 -95 -277 -276 -275 279 0
278 25 0
278 -15 0
277 42 0
277 18 0
276 29 0
276 15 0
275 39 0
275 -18 0
274 -255 0
274 -272 0
274 -273 0
-151 -150 -149 -148 -147 273 0
-151 -150 -149 -148 -196 -271 272 0
271 -260 0
271 -265 0
271 -270 0
61 76 81 62 60 77 84 -142 -164 -163 -138 -269 -268 -267 -266 270 0
269 68 0
269 15 0
268 30 0
268 18 0
267 65 0
267 -15 0
266 27 0
266 -18 0
49 48 74 47 73 83 80 -264 -157 -156 -130 -129 -263 -262 -261 265 0
264 28 0
264 18 0
263 55 0
263 15 0
262 52 0
262 -15 0
261 26 0
261 -18 0
35 36 34 79 71 70 82 -259 -126 -172 -258 -168 -120 -257 -256 260 0
259 25 0
259 -18 0
258 29 0
258 18 0
257 42 0
257 15 0
256 39 0
256 -15 0
-151 -150 -149 -148 -213 -254 255 0
254 -243 0
254 -248 0
254 -253 0
-252 76 81 63 60 78 77 -251 87 -142 -226 -225 -138 -250 -249 253 0
252 30 0
252 20 0
251 68 0
251 23 0
250 65 0
250 -23 0
249 27 0
249 -20 0
-247 50 75 74 47 73 86 80 -221 -246 -218 -130 -129 -245 -244 248 0
247 28 0
247 20 0
246 55 0
246 23 0
245 52 0
245 -23 0
244 26 0
244 -20 0
37 34 79 72 71 70 85 -242 -126 -235 -233 -120 -241 -240 -239 243 0
242 25 0
242 -20 0
241 42 0
241 23 0
240 29 0
240 20 0
239 39 0
239 -23 0
-151 -150 -149 -148 -237 -215 238 0
237 -222 0
237 -229 0
237 -236 0
37 36 34 79 71 70 85 -235 -234 -178 -175 -233 -232 -231 -230 236 0
235 43 0
235 24 0
234 42 0
234 22 0
233 40 0
233 -24 0
232 29 0
232 16 0
231 39 0
231 -22 0
230 25 0
230 -16 0
76 81 63 62 60 77 -228 87 -193 -227 -189 -226 -225 -224 -223 229 0
228 68 0
228 22 0
227 27 0
227 -16 0
226 69 0
226 24 0
225 66 0
225 -24 0
224 30 0
224 16 0
223 65 0
223 -22 0
50 49 74 47 73 86 80 -221 -220 -219 -185 -182 -218 -217 -216 222 0
221 56 0
221 24 0
220 28 0
220 16 0
219 55 0
219 22 0
218 53 0
218 -24 0
217 52 0
217 -22 0
216 26 0
216 -16 0
215 -152 0
215 -197 0
215 -214 0
-151 -150 -149 -148 -213 214 0
213 -202 0
213 -207 0
213 -212 0
61 76 81 63 62 59 -211 -116 90 -210 -141 -140 -209 -208 -114 212 0
211 68 0
211 12 0
210 65 0
210 -12 0
209 30 0
209 21 0
208 27 0
208 -21 0
50 49 48 46 73 80 -136 89 -206 -133 -205 -204 -203 -107 -106 207 0
206 55 0
206 12 0
205 28 0
205 21 0
204 52 0
204 -12 0
203 26 0
203 -21 0
33 35 37 36 79 70 88 -201 -200 -124 -123 -199 -198 -97 -96 202 0
201 39 0
201 -12 0
200 42 0
200 12 0
199 29 0
199 21 0
198 25 0
198 -21 0
-151 -150 -149 -148 -196 -174 197 0
196 -181 0
196 -188 0
196 -195 0
61 76 81 62 60 59 84 -194 -193 -192 -191 -190 -189 -141 -140 195 0
194 68 0
194 10 0
193 67 0
193 14 0
192 30 0
192 13 0
191 65 0
191 -10 0
190 27 0
190 -13 0
189 64 0
189 -14 0
49 48 46 47 73 83 80 -136 -187 -186 -185 -184 -183 -182 -133 188 0
187 55 0
187 10 0
186 28 0
186 13 0
185 54 0
185 14 0
184 52 0
184 -10 0
183 26 0
183 -13 0
182 51 0
182 -14 0
33 35 36 34 79 70 82 -180 -179 -178 -177 -176 -175 -124 -123 181 0
180 42 0
180 10 0
179 29 0
179 13 0
178 41 0
178 14 0
177 39 0
177 -10 0
176 25 0
176 -13 0
175 38 0
175 -14 0
174 -159 0
174 -166 0
174 -173 0
35 37 36 79 71 70 88 -172 -171 -170 -169 -168 -97 -96 -167 173 0
172 43 0
172 14 0
171 25 0
171 -22 0
170 39 0
170 -16 0
169 42 0
169 16 0
168 40 0
168 -14 0
167 29 0
167 22 0
61 76 81 63 62 77 -165 -116 90 -164 -163 -114 -162 -161 -160 166 0
165 30 0
165 22 0
164 66 0
164 -14 0
163 69 0
163 14 0
162 68 0
162 16 0
161 65 0
161 -16 0
160 27 0
160 -22 0
50 49 48 74 73 80 89 -158 -157 -156 -107 -106 -155 -154 -153 159 0
158 28 0
158 22 0
157 56 0
157 14 0
156 53 0
156 -14 0
155 55 0
155 16 0
154 52 0
154 -16 0
153 26 0
153 -22 0
-151 -150 -149 -148 -147 -119 152 0
151 27 0
151 -26 0
150 29 0
150 -28 0
149 26 0
149 -25 0
148 28 0
148 -30 0
147 -128 0
147 -137 0
147 -146 0
61 76 81 63 62 60 59 -145 -144 -143 -142 -141 -140 -139 -138 146 0
145 30 0
145 17 0
144 68 0
144 11 0
143 27 0
143 -17 0
142 64 0
142 -19 0
141 69 0
141 9 0
140 66 0
140 -9 0
139 65 0
139 -11 0
138 67 0
138 19 0
50 49 48 46 47 73 80 -136 -135 -134 -133 -132 -131 -130 -129 137 0
136 56 0
136 9 0
135 55 0
135 11 0
134 28 0
134 17 0
133 53 0
133 -9 0
132 52 0
132 -11 0
131 26 0
131 -17 0
130 54 0
130 19 0
129 51 0
129 -19 0
33 35 37 36 34 79 70 -127 -126 -125 -124 -123 -122 -121 -120 128 0
127 42 0
127 11 0
126 41 0
126 19 0
125 39 0
125 -11 0
124 43 0
124 9 0
123 40 0
123 -9 0
122 29 0
122 17 0
121 25 0
121 -17 0
120 38 0
120 -19 0
119 -100 0
119 -109 0
119 -118 0
61 76 81 62 77 84 -117 -116 90 -115 -114 -113 -112 -111 -110 118 0
117 69 0
117 19 0
116 67 0
116 24 0
115 66 0
115 -19 0
114 64 0
114 -24 0
113 68 0
113 20 0
112 30 0
112 23 0
111 65 0
111 -20 0
110 27 0
110 -23 0
49 48 74 73 83 80 89 -108 -107 -106 -105 -104 -103 -102 -101 109 0
108 56 0
108 19 0
107 54 0
107 24 0
106 51 0
106 -24 0
105 53 0
105 -19 0
104 55 0
104 20 0
103 28 0
103 23 0
102 52 0
102 -20 0
101 26 0
101 -23 0
35 36 79 71 70 82 88 -99 -98 -97 -96 -95 -94 -93 -92 100 0
99 39 0
99 -20 0
98 43 0
98 19 0
97 41 0
97 24 0
96 38 0
96 -24 0
95 40 0
95 -19 0
94 42 0
94 20 0
93 29 0
93 23 0
92 25 0
92 -23 0
91 10 0
91 11 0
91 12 0
91 14 0
91 15 0
91 16 0
91 17 0
91 18 0
91 19 0
91 20 0
91 21 0
91 22 0
91 23 0
91 24 0
91 9 0
91 13 0
